(set-info :status unknown)
(declare-const symbol_225 (_ BitVec 32))
(declare-const symbol_216 (_ BitVec 32))
(declare-const symbol_140 (_ BitVec 32))
(declare-const symbol_71 (_ BitVec 32))
(declare-const symbol_240 (_ BitVec 32))
(declare-const symbol_222 (_ BitVec 32))
(declare-const symbol_35 (_ BitVec 32))
(declare-const symbol_25 (_ BitVec 32))
(declare-const symbol_226 (_ BitVec 32))
(declare-const symbol_78 (_ BitVec 32))
(declare-const symbol_197 (_ BitVec 32))
(declare-const symbol_125 (_ BitVec 32))
(declare-const symbol_189 (_ BitVec 32))
(declare-const symbol_73 (_ BitVec 32))
(declare-const symbol_42 (_ BitVec 32))
(declare-const symbol_156 (_ BitVec 32))
(declare-const symbol_110 (_ BitVec 32))
(declare-const symbol_91 (_ BitVec 32))
(declare-const symbol_198 (_ BitVec 32))
(declare-const symbol_58 (_ BitVec 32))
(declare-const symbol_17 (_ BitVec 32))
(declare-const symbol_193 (_ BitVec 32))
(declare-const symbol_152 (_ BitVec 32))
(declare-const symbol_115 (_ BitVec 32))
(declare-const symbol_247 (_ BitVec 32))
(declare-const symbol_224 (_ BitVec 32))
(declare-const symbol_178 (_ BitVec 32))
(declare-const symbol_54 (_ BitVec 32))
(declare-const symbol_106 (_ BitVec 32))
(declare-const symbol_167 (_ BitVec 32))
(declare-const symbol_131 (_ BitVec 32))
(declare-const symbol_130 (_ BitVec 32))
(declare-const symbol_137 (_ BitVec 32))
(declare-const symbol_243 (_ BitVec 32))
(declare-const symbol_171 (_ BitVec 32))
(declare-const symbol_102 (_ BitVec 32))
(declare-const symbol_128 (_ BitVec 32))
(declare-const symbol_77 (_ BitVec 32))
(declare-const symbol_60 (_ BitVec 32))
(declare-const symbol_205 (_ BitVec 32))
(declare-const symbol_84 (_ BitVec 32))
(declare-const symbol_26 (_ BitVec 32))
(declare-const symbol_241 (_ BitVec 32))
(declare-const symbol_28 (_ BitVec 32))
(declare-const symbol_158 (_ BitVec 32))
(declare-const symbol_29 (_ BitVec 32))
(declare-const symbol_23 (_ BitVec 32))
(declare-const symbol_15 (_ BitVec 32))
(declare-const symbol_104 (_ BitVec 32))
(declare-const symbol_184 (_ BitVec 32))
(declare-const symbol_166 (_ BitVec 32))
(declare-const symbol_44 (_ BitVec 32))
(declare-const symbol_229 (_ BitVec 32))
(declare-const symbol_103 (_ BitVec 32))
(declare-const symbol_96 (_ BitVec 32))
(declare-const symbol_181 (_ BitVec 32))
(declare-const symbol_47 (_ BitVec 32))
(declare-const symbol_231 (_ BitVec 32))
(declare-const symbol_52 (_ BitVec 32))
(declare-const symbol_16 (_ BitVec 32))
(declare-const symbol_11 (_ BitVec 32))
(declare-const symbol_95 (_ BitVec 32))
(declare-const symbol_14 (_ BitVec 32))
(declare-const symbol_221 (_ BitVec 32))
(declare-const symbol_117 (_ BitVec 32))
(declare-const symbol_46 (_ BitVec 32))
(declare-const symbol_24 (_ BitVec 32))
(declare-const symbol_1 (_ BitVec 32))
(declare-const symbol_185 (_ BitVec 32))
(declare-const symbol_74 (_ BitVec 32))
(declare-const symbol_22 (_ BitVec 32))
(declare-const symbol_67 (_ BitVec 32))
(declare-const symbol_219 (_ BitVec 32))
(declare-const symbol_176 (_ BitVec 32))
(declare-const symbol_234 (_ BitVec 32))
(declare-const symbol_79 (_ BitVec 32))
(declare-const symbol_62 (_ BitVec 32))
(declare-const symbol_233 (_ BitVec 32))
(declare-const symbol_228 (_ BitVec 32))
(declare-const symbol_80 (_ BitVec 32))
(declare-const symbol_50 (_ BitVec 32))
(declare-const symbol_244 (_ BitVec 32))
(declare-const symbol_200 (_ BitVec 32))
(declare-const symbol_66 (_ BitVec 32))
(declare-const symbol_40 (_ BitVec 32))
(declare-const symbol_30 (_ BitVec 32))
(declare-const symbol_235 (_ BitVec 32))
(declare-const symbol_180 (_ BitVec 32))
(declare-const symbol_136 (_ BitVec 32))
(declare-const symbol_21 (_ BitVec 32))
(declare-const symbol_19 (_ BitVec 32))
(declare-const symbol_43 (_ BitVec 32))
(declare-const symbol_218 (_ BitVec 32))
(declare-const symbol_93 (_ BitVec 32))
(declare-const symbol_2 (_ BitVec 32))
(declare-const symbol_101 (_ BitVec 32))
(declare-const symbol_154 (_ BitVec 32))
(declare-const symbol_86 (_ BitVec 32))
(declare-const symbol_199 (_ BitVec 32))
(declare-const symbol_151 (_ BitVec 32))
(declare-const symbol_98 (_ BitVec 32))
(declare-const symbol_31 (_ BitVec 32))
(declare-const symbol_20 (_ BitVec 32))
(declare-const symbol_239 (_ BitVec 32))
(declare-const symbol_7 (_ BitVec 32))
(declare-const symbol_212 (_ BitVec 32))
(declare-const symbol_208 (_ BitVec 32))
(declare-const symbol_194 (_ BitVec 32))
(declare-const symbol_242 (_ BitVec 32))
(declare-const symbol_39 (_ BitVec 32))
(declare-const symbol_210 (_ BitVec 32))
(declare-const symbol_159 (_ BitVec 32))
(declare-const symbol_12 (_ BitVec 32))
(declare-const symbol_238 (_ BitVec 32))
(declare-const symbol_223 (_ BitVec 32))
(declare-const symbol_119 (_ BitVec 32))
(declare-const symbol_215 (_ BitVec 32))
(declare-const symbol_76 (_ BitVec 32))
(declare-const symbol_70 (_ BitVec 32))
(declare-const symbol_5 (_ BitVec 32))
(declare-const symbol_203 (_ BitVec 32))
(declare-const symbol_187 (_ BitVec 32))
(declare-const symbol_90 (_ BitVec 32))
(declare-const symbol_55 (_ BitVec 32))
(declare-const symbol_32 (_ BitVec 32))
(declare-const symbol_232 (_ BitVec 32))
(declare-const symbol_155 (_ BitVec 32))
(declare-const symbol_68 (_ BitVec 32))
(declare-const symbol_162 (_ BitVec 32))
(declare-const symbol_150 (_ BitVec 32))
(declare-const symbol_163 (_ BitVec 32))
(declare-const symbol_160 (_ BitVec 32))
(declare-const symbol_227 (_ BitVec 32))
(declare-const symbol_175 (_ BitVec 32))
(declare-const symbol_144 (_ BitVec 32))
(declare-const symbol_134 (_ BitVec 32))
(declare-const symbol_112 (_ BitVec 32))
(declare-const symbol_27 (_ BitVec 32))
(declare-const symbol_118 (_ BitVec 32))
(declare-const symbol_153 (_ BitVec 32))
(declare-const symbol_149 (_ BitVec 32))
(declare-const symbol_109 (_ BitVec 32))
(declare-const symbol_33 (_ BitVec 32))
(declare-const symbol_209 (_ BitVec 32))
(declare-const symbol_45 (_ BitVec 32))
(declare-const symbol_164 (_ BitVec 32))
(declare-const symbol_132 (_ BitVec 32))
(declare-const symbol_113 (_ BitVec 32))
(declare-const symbol_49 (_ BitVec 32))
(declare-const symbol_182 (_ BitVec 32))
(declare-const symbol_63 (_ BitVec 32))
(declare-const symbol_157 (_ BitVec 32))
(declare-const symbol_141 (_ BitVec 32))
(declare-const symbol_204 (_ BitVec 32))
(declare-const symbol_168 (_ BitVec 32))
(declare-const symbol_116 (_ BitVec 32))
(declare-const symbol_85 (_ BitVec 32))
(declare-const symbol_220 (_ BitVec 32))
(declare-const symbol_172 (_ BitVec 32))
(declare-const symbol_143 (_ BitVec 32))
(declare-const symbol_10 (_ BitVec 32))
(declare-const symbol_4 (_ BitVec 32))
(declare-const symbol_75 (_ BitVec 32))
(declare-const symbol_237 (_ BitVec 32))
(declare-const symbol_135 (_ BitVec 32))
(declare-const symbol_0 (_ BitVec 32))
(declare-const symbol_139 (_ BitVec 32))
(declare-const symbol_82 (_ BitVec 32))
(declare-const symbol_9 (_ BitVec 32))
(declare-const symbol_92 (_ BitVec 32))
(declare-const symbol_230 (_ BitVec 32))
(declare-const symbol_161 (_ BitVec 32))
(declare-const symbol_192 (_ BitVec 32))
(declare-const symbol_188 (_ BitVec 32))
(declare-const symbol_179 (_ BitVec 32))
(declare-const symbol_65 (_ BitVec 32))
(declare-const symbol_36 (_ BitVec 32))
(declare-const symbol_64 (_ BitVec 32))
(declare-const symbol_183 (_ BitVec 32))
(declare-const symbol_108 (_ BitVec 32))
(declare-const symbol_248 (_ BitVec 32))
(declare-const symbol_133 (_ BitVec 32))
(declare-const symbol_61 (_ BitVec 32))
(declare-const symbol_34 (_ BitVec 32))
(declare-const symbol_3 (_ BitVec 32))
(declare-const symbol_123 (_ BitVec 32))
(declare-const symbol_145 (_ BitVec 32))
(declare-const symbol_126 (_ BitVec 32))
(declare-const symbol_38 (_ BitVec 32))
(declare-const symbol_236 (_ BitVec 32))
(declare-const symbol_196 (_ BitVec 32))
(declare-const symbol_105 (_ BitVec 32))
(declare-const symbol_100 (_ BitVec 32))
(declare-const symbol_57 (_ BitVec 32))
(declare-const symbol_6 (_ BitVec 32))
(declare-const symbol_127 (_ BitVec 32))
(declare-const symbol_207 (_ BitVec 32))
(declare-const symbol_202 (_ BitVec 32))
(declare-const symbol_94 (_ BitVec 32))
(declare-const symbol_72 (_ BitVec 32))
(declare-const symbol_41 (_ BitVec 32))
(declare-const symbol_191 (_ BitVec 32))
(declare-const symbol_83 (_ BitVec 32))
(declare-const symbol_173 (_ BitVec 32))
(declare-const symbol_97 (_ BitVec 32))
(declare-const symbol_177 (_ BitVec 32))
(declare-const symbol_122 (_ BitVec 32))
(declare-const symbol_18 (_ BitVec 32))
(declare-const symbol_147 (_ BitVec 32))
(declare-const symbol_170 (_ BitVec 32))
(declare-const symbol_211 (_ BitVec 32))
(declare-const symbol_246 (_ BitVec 32))
(declare-const symbol_169 (_ BitVec 32))
(declare-const symbol_111 (_ BitVec 32))
(declare-const symbol_37 (_ BitVec 32))
(declare-const symbol_120 (_ BitVec 32))
(declare-const symbol_88 (_ BitVec 32))
(declare-const symbol_190 (_ BitVec 32))
(declare-const symbol_174 (_ BitVec 32))
(declare-const symbol_99 (_ BitVec 32))
(declare-const symbol_107 (_ BitVec 32))
(declare-const symbol_51 (_ BitVec 32))
(declare-const symbol_142 (_ BitVec 32))
(declare-const symbol_89 (_ BitVec 32))
(declare-const symbol_124 (_ BitVec 32))
(declare-const symbol_217 (_ BitVec 32))
(declare-const symbol_206 (_ BitVec 32))
(declare-const symbol_186 (_ BitVec 32))
(declare-const symbol_121 (_ BitVec 32))
(declare-const symbol_13 (_ BitVec 32))
(declare-const symbol_53 (_ BitVec 32))
(declare-const symbol_59 (_ BitVec 32))
(declare-const symbol_165 (_ BitVec 32))
(declare-const symbol_56 (_ BitVec 32))
(declare-const symbol_146 (_ BitVec 32))
(declare-const symbol_148 (_ BitVec 32))
(declare-const symbol_138 (_ BitVec 32))
(declare-const symbol_69 (_ BitVec 32))
(declare-const symbol_8 (_ BitVec 32))
(declare-const symbol_195 (_ BitVec 32))
(declare-const symbol_129 (_ BitVec 32))
(declare-const symbol_114 (_ BitVec 32))
(declare-const symbol_245 (_ BitVec 32))
(declare-const symbol_81 (_ BitVec 32))
(declare-const symbol_214 (_ BitVec 32))
(declare-const symbol_87 (_ BitVec 32))
(declare-const symbol_213 (_ BitVec 32))
(declare-const symbol_201 (_ BitVec 32))
(declare-const symbol_48 (_ BitVec 32))
(assert (bvsgt symbol_248 symbol_1))
(assert (not (bvsgt symbol_247 symbol_1)))
(assert (not (bvsgt symbol_246 symbol_1)))
(assert (not (bvsgt symbol_245 symbol_1)))
(assert (not (bvsgt symbol_244 symbol_1)))
(assert (not (bvsgt symbol_243 symbol_1)))
(assert (not (bvsgt symbol_242 symbol_1)))
(assert (not (bvsgt symbol_241 symbol_1)))
(assert (not (bvsgt symbol_240 symbol_1)))
(assert (not (bvsgt symbol_239 symbol_1)))
(assert (not (bvsgt symbol_238 symbol_1)))
(assert (not (bvsgt symbol_237 symbol_1)))
(assert (not (bvsgt symbol_236 symbol_1)))
(assert (not (bvsgt symbol_235 symbol_1)))
(assert (not (bvsgt symbol_234 symbol_1)))
(assert (not (bvsgt symbol_233 symbol_1)))
(assert (not (bvsgt symbol_232 symbol_1)))
(assert (not (bvsgt symbol_231 symbol_1)))
(assert (not (bvsgt symbol_230 symbol_1)))
(assert (not (bvsgt symbol_229 symbol_1)))
(assert (not (bvsgt symbol_228 symbol_1)))
(assert (not (bvsgt symbol_227 symbol_1)))
(assert (not (bvsgt symbol_226 symbol_1)))
(assert (not (bvsgt symbol_225 symbol_1)))
(assert (not (bvsgt symbol_224 symbol_1)))
(assert (not (bvsgt symbol_223 symbol_1)))
(assert (not (bvsgt symbol_222 symbol_1)))
(assert (not (bvsgt symbol_221 symbol_1)))
(assert (not (bvsgt symbol_220 symbol_1)))
(assert (not (bvsgt symbol_219 symbol_1)))
(assert (not (bvsgt symbol_218 symbol_1)))
(assert (not (bvsgt symbol_217 symbol_1)))
(assert (not (bvsgt symbol_216 symbol_1)))
(assert (not (bvsgt symbol_215 symbol_1)))
(assert (not (bvsgt symbol_214 symbol_1)))
(assert (not (bvsgt symbol_213 symbol_1)))
(assert (not (bvsgt symbol_212 symbol_1)))
(assert (not (bvsgt symbol_211 symbol_1)))
(assert (not (bvsgt symbol_210 symbol_1)))
(assert (not (bvsgt symbol_209 symbol_1)))
(assert (not (bvsgt symbol_208 symbol_1)))
(assert (not (bvsgt symbol_207 symbol_1)))
(assert (not (bvsgt symbol_206 symbol_1)))
(assert (not (bvsgt symbol_205 symbol_1)))
(assert (not (bvsgt symbol_204 symbol_1)))
(assert (not (bvsgt symbol_203 symbol_1)))
(assert (not (bvsgt symbol_202 symbol_1)))
(assert (not (bvsgt symbol_201 symbol_1)))
(assert (not (bvsgt symbol_200 symbol_1)))
(assert (not (bvsgt symbol_199 symbol_1)))
(assert (not (bvsgt symbol_198 symbol_1)))
(assert (not (bvsgt symbol_197 symbol_1)))
(assert (not (bvsgt symbol_196 symbol_1)))
(assert (not (bvsgt symbol_195 symbol_1)))
(assert (not (bvsgt symbol_194 symbol_1)))
(assert (not (bvsgt symbol_193 symbol_1)))
(assert (not (bvsgt symbol_192 symbol_1)))
(assert (not (bvsgt symbol_191 symbol_1)))
(assert (not (bvsgt symbol_190 symbol_1)))
(assert (not (bvsgt symbol_189 symbol_1)))
(assert (not (bvsgt symbol_188 symbol_1)))
(assert (not (bvsgt symbol_187 symbol_1)))
(assert (not (bvsgt symbol_186 symbol_1)))
(assert (not (bvsgt symbol_185 symbol_1)))
(assert (not (bvsgt symbol_184 symbol_1)))
(assert (not (bvsgt symbol_183 symbol_1)))
(assert (not (bvsgt symbol_182 symbol_1)))
(assert (not (bvsgt symbol_181 symbol_1)))
(assert (not (bvsgt symbol_180 symbol_1)))
(assert (not (bvsgt symbol_179 symbol_1)))
(assert (not (bvsgt symbol_178 symbol_1)))
(assert (not (bvsgt symbol_177 symbol_1)))
(assert (not (bvsgt symbol_176 symbol_1)))
(assert (not (bvsgt symbol_175 symbol_1)))
(assert (not (bvsgt symbol_174 symbol_1)))
(assert (not (bvsgt symbol_173 symbol_1)))
(assert (not (bvsgt symbol_172 symbol_1)))
(assert (not (bvsgt symbol_171 symbol_1)))
(assert (not (bvsgt symbol_170 symbol_1)))
(assert (not (bvsgt symbol_169 symbol_1)))
(assert (not (bvsgt symbol_168 symbol_1)))
(assert (not (bvsgt symbol_167 symbol_1)))
(assert (not (bvsgt symbol_166 symbol_1)))
(assert (not (bvsgt symbol_165 symbol_1)))
(assert (not (bvsgt symbol_164 symbol_1)))
(assert (not (bvsgt symbol_163 symbol_1)))
(assert (not (bvsgt symbol_162 symbol_1)))
(assert (not (bvsgt symbol_161 symbol_1)))
(assert (not (bvsgt symbol_160 symbol_1)))
(assert (not (bvsgt symbol_159 symbol_1)))
(assert (not (bvsgt symbol_158 symbol_1)))
(assert (not (bvsgt symbol_157 symbol_1)))
(assert (not (bvsgt symbol_156 symbol_1)))
(assert (not (bvsgt symbol_155 symbol_1)))
(assert (not (bvsgt symbol_154 symbol_1)))
(assert (not (bvsgt symbol_153 symbol_1)))
(assert (not (bvsgt symbol_152 symbol_1)))
(assert (not (bvsgt symbol_151 symbol_1)))
(assert (not (bvsgt symbol_150 symbol_1)))
(assert (not (bvsgt symbol_149 symbol_1)))
(assert (not (bvsgt symbol_148 symbol_1)))
(assert (not (bvsgt symbol_147 symbol_1)))
(assert (not (bvsgt symbol_146 symbol_1)))
(assert (not (bvsgt symbol_145 symbol_1)))
(assert (not (bvsgt symbol_144 symbol_1)))
(assert (not (bvsgt symbol_143 symbol_1)))
(assert (not (bvsgt symbol_142 symbol_1)))
(assert (not (bvsgt symbol_141 symbol_1)))
(assert (not (bvsgt symbol_140 symbol_1)))
(assert (not (bvsgt symbol_139 symbol_1)))
(assert (not (bvsgt symbol_138 symbol_1)))
(assert (not (bvsgt symbol_137 symbol_1)))
(assert (not (bvsgt symbol_136 symbol_1)))
(assert (not (bvsgt symbol_135 symbol_1)))
(assert (not (bvsgt symbol_134 symbol_1)))
(assert (not (bvsgt symbol_133 symbol_1)))
(assert (not (bvsgt symbol_132 symbol_1)))
(assert (not (bvsgt symbol_131 symbol_1)))
(assert (not (bvsgt symbol_130 symbol_1)))
(assert (not (bvsgt symbol_129 symbol_1)))
(assert (not (bvsgt symbol_128 symbol_1)))
(assert (not (bvsgt symbol_127 symbol_1)))
(assert (not (bvsgt symbol_126 symbol_1)))
(assert (not (bvsgt symbol_125 symbol_1)))
(assert (not (bvsgt symbol_124 symbol_1)))
(assert (not (bvsgt symbol_123 symbol_1)))
(assert (not (bvsgt symbol_122 symbol_1)))
(assert (not (bvsgt symbol_121 symbol_1)))
(assert (not (bvsgt symbol_120 symbol_1)))
(assert (not (bvsgt symbol_119 symbol_1)))
(assert (not (bvsgt symbol_118 symbol_1)))
(assert (not (bvsgt symbol_117 symbol_1)))
(assert (not (bvsgt symbol_116 symbol_1)))
(assert (not (bvsgt symbol_115 symbol_1)))
(assert (not (bvsgt symbol_114 symbol_1)))
(assert (not (bvsgt symbol_113 symbol_1)))
(assert (not (bvsgt symbol_112 symbol_1)))
(assert (not (bvsgt symbol_111 symbol_1)))
(assert (not (bvsgt symbol_110 symbol_1)))
(assert (not (bvsgt symbol_109 symbol_1)))
(assert (not (bvsgt symbol_108 symbol_1)))
(assert (not (bvsgt symbol_107 symbol_1)))
(assert (not (bvsgt symbol_106 symbol_1)))
(assert (not (bvsgt symbol_105 symbol_1)))
(assert (not (bvsgt symbol_104 symbol_1)))
(assert (not (bvsgt symbol_103 symbol_1)))
(assert (not (bvsgt symbol_102 symbol_1)))
(assert (not (bvsgt symbol_101 symbol_1)))
(assert (not (bvsgt symbol_100 symbol_1)))
(assert (not (bvsgt symbol_99 symbol_1)))
(assert (not (bvsgt symbol_98 symbol_1)))
(assert (not (bvsgt symbol_97 symbol_1)))
(assert (not (bvsgt symbol_96 symbol_1)))
(assert (not (bvsgt symbol_95 symbol_1)))
(assert (not (bvsgt symbol_94 symbol_1)))
(assert (not (bvsgt symbol_93 symbol_1)))
(assert (not (bvsgt symbol_92 symbol_1)))
(assert (not (bvsgt symbol_91 symbol_1)))
(assert (not (bvsgt symbol_90 symbol_1)))
(assert (not (bvsgt symbol_89 symbol_1)))
(assert (not (bvsgt symbol_88 symbol_1)))
(assert (not (bvsgt symbol_87 symbol_1)))
(assert (not (bvsgt symbol_86 symbol_1)))
(assert (not (bvsgt symbol_85 symbol_1)))
(assert (not (bvsgt symbol_84 symbol_1)))
(assert (not (bvsgt symbol_83 symbol_1)))
(assert (not (bvsgt symbol_82 symbol_1)))
(assert (not (bvsgt symbol_81 symbol_1)))
(assert (not (bvsgt symbol_80 symbol_1)))
(assert (not (bvsgt symbol_79 symbol_1)))
(assert (not (bvsgt symbol_78 symbol_1)))
(assert (not (bvsgt symbol_77 symbol_1)))
(assert (not (bvsgt symbol_76 symbol_1)))
(assert (not (bvsgt symbol_75 symbol_1)))
(assert (not (bvsgt symbol_74 symbol_1)))
(assert (not (bvsgt symbol_73 symbol_1)))
(assert (not (bvsgt symbol_72 symbol_1)))
(assert (not (bvsgt symbol_71 symbol_1)))
(assert (not (bvsgt symbol_70 symbol_1)))
(assert (not (bvsgt symbol_69 symbol_1)))
(assert (not (bvsgt symbol_68 symbol_1)))
(assert (not (bvsgt symbol_67 symbol_1)))
(assert (not (bvsgt symbol_66 symbol_1)))
(assert (not (bvsgt symbol_65 symbol_1)))
(assert (not (bvsgt symbol_64 symbol_1)))
(assert (not (bvsgt symbol_63 symbol_1)))
(assert (not (bvsgt symbol_62 symbol_1)))
(assert (not (bvsgt symbol_61 symbol_1)))
(assert (not (bvsgt symbol_60 symbol_1)))
(assert (not (bvsgt symbol_59 symbol_1)))
(assert (not (bvsgt symbol_58 symbol_1)))
(assert (not (bvsgt symbol_57 symbol_1)))
(assert (not (bvsgt symbol_56 symbol_1)))
(assert (not (bvsgt symbol_55 symbol_1)))
(assert (not (bvsgt symbol_54 symbol_1)))
(assert (not (bvsgt symbol_53 symbol_1)))
(assert (not (bvsgt symbol_52 symbol_1)))
(assert (not (bvsgt symbol_51 symbol_1)))
(assert (not (bvsgt symbol_50 symbol_1)))
(assert (not (bvsgt symbol_49 symbol_1)))
(assert (not (bvsgt symbol_48 symbol_1)))
(assert (not (bvsgt symbol_47 symbol_1)))
(assert (not (bvsgt symbol_46 symbol_1)))
(assert (not (bvsgt symbol_45 symbol_1)))
(assert (not (bvsgt symbol_44 symbol_1)))
(assert (not (bvsgt symbol_43 symbol_1)))
(assert (not (bvsgt symbol_42 symbol_1)))
(assert (not (bvsgt symbol_41 symbol_1)))
(assert (not (bvsgt symbol_40 symbol_1)))
(assert (not (bvsgt symbol_39 symbol_1)))
(assert (not (bvsgt symbol_38 symbol_1)))
(assert (not (bvsgt symbol_37 symbol_1)))
(assert (not (bvsgt symbol_36 symbol_1)))
(assert (not (bvsgt symbol_35 symbol_1)))
(assert (not (bvsgt symbol_34 symbol_1)))
(assert (not (bvsgt symbol_33 symbol_1)))
(assert (not (bvsgt symbol_32 symbol_1)))
(assert (not (bvsgt symbol_31 symbol_1)))
(assert (not (bvsgt symbol_30 symbol_1)))
(assert (not (bvsgt symbol_29 symbol_1)))
(assert (not (bvsgt symbol_28 symbol_1)))
(assert (not (bvsgt symbol_27 symbol_1)))
(assert (not (bvsgt symbol_26 symbol_1)))
(assert (not (bvsgt symbol_25 symbol_1)))
(assert (not (bvsgt symbol_24 symbol_1)))
(assert (not (bvsgt symbol_23 symbol_1)))
(assert (not (bvsgt symbol_22 symbol_1)))
(assert (not (bvsgt symbol_21 symbol_1)))
(assert (not (bvsgt symbol_20 symbol_1)))
(assert (not (bvsgt symbol_19 symbol_1)))
(assert (not (bvsgt symbol_18 symbol_1)))
(assert (not (bvsgt symbol_17 symbol_1)))
(assert (not (bvsgt symbol_16 symbol_1)))
(assert (not (bvsgt symbol_15 symbol_1)))
(assert (not (bvsgt symbol_14 symbol_1)))
(assert (not (bvsgt symbol_13 symbol_1)))
(assert (not (bvsgt symbol_12 symbol_1)))
(assert (not (bvsgt symbol_11 symbol_1)))
(assert (not (bvsgt symbol_10 symbol_1)))
(assert (not (bvsgt symbol_9 symbol_1)))
(assert (not (bvsgt symbol_8 symbol_1)))
(assert (not (bvsgt symbol_7 symbol_1)))
(assert (not (bvsgt symbol_6 symbol_1)))
(assert (not (bvsgt symbol_5 symbol_1)))
(assert (not (bvsgt symbol_4 symbol_1)))
(assert (not (bvsgt symbol_3 symbol_1)))
(assert (not (bvsgt symbol_2 symbol_1)))
(assert (not (bvsgt symbol_0 symbol_1)))
(check-sat)